c 11_3_checker_5cl.cnf
c
c field = 11
c formula set type = 3_checker_5cl
c
p cnf 5 6
22 
24 
26 
-29 
-18 
23 
25 
27 
-28 
-19 
50 
80 
110 
-141 
-170 
51 
81 
111 
-140 
-171 
48 
76 
104 
-133 
-160 
49 
77 
105 
-132 
-161 
